logs/cplex/in2 - small.log
Version identifier: 22.1.1.0 | 2022-11-28 | 9160aff4d
Tried aggregator 1 time.
Reduced MIP has 25 rows, 18 columns, and 63 nonzeros.
Reduced MIP has 18 binaries, 0 generals, 0 SOSs, and 0 indicators.
Presolve time = 0.02 sec. (0.03 ticks)
Found incumbent of value 66.000000 after 0.04 sec. (0.05 ticks)
Probing time = 0.00 sec. (0.01 ticks)
Tried aggregator 1 time.
Detecting symmetries...
Reduced MIP has 25 rows, 18 columns, and 63 nonzeros.
Reduced MIP has 18 binaries, 0 generals, 0 SOSs, and 0 indicators.
Presolve time = 0.00 sec. (0.04 ticks)
Probing time = 0.00 sec. (0.01 ticks)
Clique table members: 16.
MIP emphasis: balance optimality and feasibility.
MIP search method: dynamic search.
Parallel mode: deterministic, using up to 14 threads.
Root relaxation solution time = 0.00 sec. (0.04 ticks)

        Nodes                                         Cuts/
   Node  Left     Objective  IInf  Best Integer    Best Bound    ItCnt     Gap

*     0+    0                           66.0000        0.0000           100.00%
*     0+    0                           45.0000        0.0000           100.00%
*     0+    0                           39.0000        0.0000           100.00%
*     0+    0                           36.0000        0.0000           100.00%
      0     0       26.5000    10       36.0000       26.5000       11   26.39%
      0     0       31.0000     9       36.0000       Cuts: 7       19   13.89%
      0     0       33.0000    18       36.0000       Cuts: 6       27    8.33%
      0     0       34.6154    16       36.0000   ZeroHalf: 4       33    3.85%
*     0     0      integral     0       35.0000   ZeroHalf: 7       34    0.00%
      0     0        cutoff             35.0000       35.0000       34    0.00%
Elapsed time = 0.28 sec. (0.78 ticks, tree = 0.01 MB, solutions = 5)

Implied bound cuts applied:  5
Zero-half cuts applied:  9

Root node processing (before b&c):
  Real time             =    0.28 sec. (0.78 ticks)
Parallel b&c, 14 threads:
  Real time             =    0.00 sec. (0.00 ticks)
  Sync time (average)   =    0.00 sec.
  Wait time (average)   =    0.00 sec.
                          ------------
Total (root+branch&cut) =    0.28 sec. (0.78 ticks)
Status: Optimal
Obj: 35

Instalacoes abertas:
Instalação 0 aberta
Instalação 1 aberta

Atribuições (cliente -> instalação):
Cliente 0 -> Instalação 1
Cliente 1 -> Instalação 0
Cliente 2 -> Instalação 1
Cliente 3 -> Instalação 0
